&control
    calculation = 'scf'
    restart_mode = 'from_scratch'
    prefix = 'ar'
    pseudo_dir = '/home/junhao/espresso/espresso-5.3.0/pseudo'
    outdir = 'out/'
/
&system
    ibrav = 0
    nat = 1
    ntyp = 1
    ecutwfc = 50.0
   ! nspin = 2
   ! tot_magnetization = 0.6
   ! occupation = 'tetrahedra'
   ! ecutrho = 200.0
/
&electrons
    conv_thr = 1.0d-12
    diagonalization = 'cg'
/
ATOMIC_SPECIES
Ar 39.948 Ar.pbe-n-kjpaw.psl.0.2.3.UPF
ATOMIC_POSITIONS crystal
Ar  0.00  0.00  0.00
K_POINTS automatic
10 10 10 0 0 0
CELL_PARAMETERS angstrom
-2.8 0.0 2.8
0.0 2.8 2.8
-2.8 2.8 0.0
