&control
    calculation = 'scf'
    restart_mode = 'from_scratch'
    prefix = 'si'
    pseudo_dir = '/home/junhao/espresso/espresso-5.3.0/pseudo'
    outdir = 'out/'
/
&system
    ibrav = 0
    nat = 2
    ntyp = 1
    ecutwfc = 120.0
!    celldm(1) = 10.26
!    ecutrho = 200.0
/
&electrons
     conv_thr = 1.0d-12
     diagonalization = 'cg'
!    mixing_beta = 0.7
/
ATOMIC_SPECIES
Si 28.0855 Si.pbe-rrkj.UPF
ATOMIC_POSITIONS crystal
Si 0.00 0.00 0.00
Si 0.25 0.25 0.25
K_POINTS automatic
12 12 12 0 0 0
CELL_PARAMETERS angstrom
0.0 10.0 10.0 
10.0 0.0 10.0 
10.0 10.0 0.0
